300
400 400
1 320 657
2 317 446
3 315 452
4 314 751
5 314 500
6 314 744
7 313 375
8 312 187
9 311 559
10 310 581
11 310 617
12 307 639
13 303 734
14 303 645
15 303 841
16 299 167
17 299 94
18 298 282
19 297 765
20 295 826
21 295 159
22 294 540
23 293 1
24 292 960
25 288 989
26 287 480
27 286 652
28 286 314
29 285 618
30 284 604
31 284 513
32 282 349
33 282 536
34 281 315
35 281 794
36 280 527
37 280 949
38 278 867
39 276 995
40 275 320
41 275 538
42 275 651
43 274 585
44 273 195
45 272 264
46 272 837
47 271 249
48 271 181
49 270 909
50 269 948
51 268 825
52 268 786
53 267 170
54 267 207
55 261 725
56 261 730
57 260 267
58 259 795
59 258 54
60 258 981
61 258 656
62 257 909
63 257 973
64 256 472
65 255 131
66 254 979
67 253 747
68 253 65
69 253 717
70 252 740
71 252 932
72 252 131
73 252 163
74 251 825
75 250 294
76 249 542
77 249 135
78 248 670
79 247 361
80 247 464
81 247 868
82 246 947
83 246 527
84 245 586
85 245 610
86 242 514
87 242 42
88 239 390
89 238 332
90 238 238
91 238 665
92 237 198
93 237 583
94 236 596
95 235 460
96 235 666
97 235 509
98 233 782
99 233 553
100 232 325
101 225 770
102 225 815
103 224 844
104 223 473
105 223 30
106 223 134
107 222 930
108 222 175
109 222 955
110 221 762
111 221 104
112 220 971
113 218 359
114 218 973
115 216 923
116 216 480
117 216 674
118 215 73
119 214 898
120 213 758
121 213 44
122 212 14
123 210 155
124 210 361
125 210 982
126 209 106
127 209 192
128 207 133
129 205 755
130 205 879
131 204 318
132 201 199
133 201 651
134 200 14
135 200 525
136 199 901
137 197 436
138 193 936
139 192 430
140 191 146
141 190 173
142 190 301
143 189 829
144 189 39
145 188 501
146 188 654
147 188 594
148 186 664
149 186 920
150 184 531
151 184 910
152 182 151
153 182 931
154 180 711
155 180 970
156 179 812
157 177 852
158 175 399
159 174 307
160 173 519
161 172 866
162 172 23
163 171 384
164 169 196
165 168 801
166 167 585
167 166 908
168 162 537
169 161 149
170 161 142
171 159 926
172 158 8
173 157 884
174 156 554
175 155 7
176 153 524
177 153 40
178 152 389
179 150 104
180 149 24
181 148 217
182 148 433
183 147 158
184 146 177
185 145 309
186 145 881
187 145 13
188 143 229
189 142 156
190 142 815
191 142 151
192 141 586
193 141 845
194 141 505
195 140 239
196 140 997
197 138 811
198 136 57
199 136 149
200 135 844
201 135 480
202 134 418
203 133 401
204 133 260
205 128 640
206 127 222
207 127 710
208 126 643
209 126 483
210 124 383
211 123 225
212 122 450
213 120 917
214 120 927
215 119 542
216 119 426
217 118 944
218 117 591
219 116 782
220 115 376
221 115 179
222 113 624
223 112 206
224 111 519
225 111 876
226 110 773
227 109 765
228 107 9
229 106 638
230 105 848
231 105 697
232 105 478
233 103 384
234 101 318
235 99 895
236 97 416
237 96 193
238 96 761
239 95 289
240 95 578
241 94 730
242 94 986
243 93 126
244 92 822
245 91 390
246 90 206
247 90 349
248 88 516
249 85 938
250 84 240
251 84 136
252 84 459
253 84 373
254 82 99
255 82 277
256 81 915
257 80 52
258 79 894
259 77 830
260 77 652
261 75 885
262 74 156
263 74 514
264 74 586
265 72 649
266 71 770
267 70 14
268 68 555
269 68 727
270 67 133
271 66 711
272 65 220
273 65 694
274 64 107
275 64 426
276 63 634
277 60 249
278 59 255
279 59 297
280 58 726
281 57 696
282 56 112
283 55 560
284 54 269
285 54 427
286 54 920
287 53 681
288 53 542
289 51 153
290 50 90
291 49 242
292 49 251
293 47 65
294 44 498
295 42 474
296 42 665
297 42 612
298 41 153
299 41 909
300 40 295
